00001001001001000000000000000000001011001000001011,00000000000000000000000000000000000000000000000000,00000100110100100101001010011000000000000010000000,00000000000000000000000000000000000000000000000000,00010000000000000000010001000011010100110000100100,00100010000010000010000100000100100000000000000000,00000000000000000000000000000000000000000000000000,00000000000000000000000000000000000000000000000000,00000000000000000000000000000000000000000000000000,11000000000000011000100000100000000000000101010000,[0, 0, 0, 0, 5, 0, 0, 10, 0, 0, 10, 0, 0, 5, 0, 0, 0, 0, 0, 0, 0, 0, 0, 0, 0, 0, 0, 0, 0, 0, 0, 0, 0, 0, 10, 0, 5, 10, 0, 0, 10, 0, 0, 0, 0, 0, 5, 0, 5, 5],[],[0, 0, 0, 0, 0, 3, 0, 0, 3, 4, 0, 3, 0, 0, 4, 0, 0, 3, 0, 4, 0, 0, 3, 0, 3, 0, 0, 4, 4, 0, 0, 0, 0, 0, 0, 0, 0, 0, 0, 0, 0, 0, 3, 0, 0, 0, 0, 0, 0, 0],[],[0, 0, 0, 9, 0, 0, 0, 0, 0, 0, 0, 0, 0, 0, 0, 0, 0, 0, 0, 0, 0, 9, 0, 0, 0, 9, 0, 0, 0, 0, 7, 7, 0, 9, 0, 9, 0, 0, 9, 9, 0, 0, 0, 0, 7, 0, 0, 7, 0, 0],[0, 0, 6, 0, 0, 0, 2, 0, 0, 0, 0, 0, 2, 0, 0, 0, 0, 0, 2, 0, 0, 0, 0, 2, 0, 0, 0, 0, 0, 2, 0, 0, 6, 0, 0, 0, 0, 0, 0, 0, 0, 0, 0, 0, 0, 0, 0, 0, 0, 0],[],[],[],[1, 8, 0, 0, 0, 0, 0, 0, 0, 0, 0, 0, 0, 0, 0, 8, 8, 0, 0, 0, 1, 0, 0, 0, 0, 0, 1, 0, 0, 0, 0, 0, 0, 0, 0, 0, 0, 0, 0, 0, 0, 8, 0, 1, 0, 1, 0, 0, 0, 0][26, 43, 0, 45, 20],[18, 23, 6, 29, 12],[17, 24, 8, 42, 5, 22, 11],[28, 19, 9, 27, 14],[48, 4, 46, 49, 36, 13],[2, 32],[31, 30, 44, 47],[1, 16, 15, 41],[39, 38, 25, 33, 21, 3, 35],[37, 40, 10, 34, 7]
00001001001001000000000000000000001011001000001011,00000000000000000000000000000000000000000000000000,00000100110100100101001010011000000000000010000000,00000000000000000000000000000000000000000000000000,00010000000000000000010001000011010100110000100100,00100010000010000010000100000100100000000000000000,00000000000000000000000000000000000000000000000000,00000000000000000000000000000000000000000000000000,00000000000000000000000000000000000000000000000000,11000000000000011000100000100000000000000101010000,[0, 0, 0, 0, 6, 0, 0, 10, 0, 0, 10, 0, 0, 6, 0, 0, 0, 0, 0, 0, 0, 0, 0, 0, 0, 0, 0, 0, 0, 0, 0, 0, 0, 0, 6, 0, 6, 6, 0, 0, 10, 0, 0, 0, 0, 0, 10, 0, 10, 10],[],[0, 0, 0, 0, 0, 7, 0, 0, 2, 7, 0, 2, 0, 0, 2, 0, 0, 2, 0, 2, 0, 0, 2, 0, 7, 0, 0, 7, 2, 0, 0, 0, 0, 0, 0, 0, 0, 0, 0, 0, 0, 0, 7, 0, 0, 0, 0, 0, 0, 0],[],[0, 0, 0, 3, 0, 0, 0, 0, 0, 0, 0, 0, 0, 0, 0, 0, 0, 0, 0, 0, 0, 9, 0, 0, 0, 3, 0, 0, 0, 0, 9, 9, 0, 3, 0, 3, 0, 0, 3, 3, 0, 0, 0, 0, 9, 0, 0, 9, 0, 0],[0, 0, 1, 0, 0, 0, 1, 0, 0, 0, 0, 0, 4, 0, 0, 0, 0, 0, 1, 0, 0, 0, 0, 4, 0, 0, 0, 0, 0, 1, 0, 0, 4, 0, 0, 0, 0, 0, 0, 0, 0, 0, 0, 0, 0, 0, 0, 0, 0, 0],[],[],[],[5, 8, 0, 0, 0, 0, 0, 0, 0, 0, 0, 0, 0, 0, 0, 8, 8, 0, 0, 0, 8, 0, 0, 0, 0, 0, 5, 0, 0, 0, 0, 0, 0, 0, 0, 0, 0, 0, 0, 0, 0, 8, 0, 5, 0, 5, 0, 0, 0, 0][29, 2, 6, 18],[19, 14, 8, 17, 28, 22, 11],[3, 35, 39, 38, 25, 33],[23, 32, 12],[43, 26, 0, 45],[4, 34, 36, 37, 13],[27, 5, 42, 9, 24],[16, 15, 41, 1, 20],[47, 21, 30, 31, 44],[46, 48, 40, 10, 49, 7]
00100001001010000010000100000100100010000000001000,00000000000000000000000000000000000000000000000000,00000000110100000101001010011000000000000000000000,00000000000000000000000000000000000000000000000000,00010010000000000000010001000011010100110000100100,00000000000000000000000000000000000000000000000000,10001100000000101000100000000000000000001010010000,01000000000001010000000000100000001001000101000011,00000000000000000000000000000000000000000000000000,00000000000000000000000000000000000000000000000000,[0, 0, 7, 0, 0, 0, 0, 1, 0, 0, 7, 0, 7, 0, 0, 0, 0, 0, 7, 0, 0, 0, 0, 1, 0, 0, 0, 0, 0, 1, 0, 0, 1, 0, 0, 0, 7, 0, 0, 0, 0, 0, 0, 0, 0, 0, 7, 0, 0, 0],[],[0, 0, 0, 0, 0, 0, 0, 0, 6, 6, 0, 10, 0, 0, 0, 0, 0, 10, 0, 10, 0, 0, 6, 0, 6, 0, 0, 6, 10, 0, 0, 0, 0, 0, 0, 0, 0, 0, 0, 0, 0, 0, 0, 0, 0, 0, 0, 0, 0, 0],[],[0, 0, 0, 9, 0, 0, 2, 0, 0, 0, 0, 0, 0, 0, 0, 0, 0, 0, 0, 0, 0, 2, 0, 0, 0, 2, 0, 0, 0, 0, 2, 9, 0, 2, 0, 2, 0, 0, 9, 9, 0, 0, 0, 0, 9, 0, 0, 9, 0, 0],[],[3, 0, 0, 0, 5, 3, 0, 0, 0, 0, 0, 0, 0, 0, 5, 0, 5, 0, 0, 0, 3, 0, 0, 0, 0, 0, 0, 0, 0, 0, 0, 0, 0, 0, 0, 0, 0, 0, 0, 0, 5, 0, 3, 0, 0, 3, 0, 0, 0, 0],[0, 8, 0, 0, 0, 0, 0, 0, 0, 0, 0, 0, 0, 4, 0, 4, 0, 0, 0, 0, 0, 0, 0, 0, 0, 0, 8, 0, 0, 0, 0, 0, 0, 0, 4, 0, 0, 8, 0, 0, 0, 8, 0, 4, 0, 0, 0, 0, 8, 4],[],[][7, 23, 29, 32],[30, 6, 35, 25, 21, 33],[5, 0, 20, 42, 45],[13, 49, 15, 43, 34],[14, 16, 4, 40],[8, 24, 22, 9, 27],[46, 2, 10, 18, 36, 12],[1, 26, 37, 48, 41],[44, 38, 31, 39, 47, 3],[11, 17, 19, 28]
00100001001010000010000100000100100010000000001000,00000000000000000000000000000000000000000000000000,00000000000000000000000000000000000000000000000000,00000000000000000000000000000000000000000000000000,00010010010100000100010001011011010100110000100100,00000000000000000000000000000000000000000000000000,00000000000000000000000000000000000000000000000000,11001100100001111001101010100000001001001111010011,00000000000000000000000000000000000000000000000000,00000000000000000000000000000000000000000000000000,[0, 0, 8, 0, 0, 0, 0, 8, 0, 0, 5, 0, 5, 0, 0, 0, 0, 0, 6, 0, 0, 0, 0, 8, 0, 0, 0, 0, 0, 6, 0, 0, 5, 0, 0, 0, 5, 0, 0, 0, 0, 0, 0, 0, 0, 0, 5, 0, 0, 0],[],[],[],[0, 0, 0, 3, 0, 0, 3, 0, 0, 2, 0, 2, 0, 0, 0, 0, 0, 3, 0, 0, 0, 2, 0, 0, 0, 2, 0, 1, 1, 0, 3, 2, 0, 1, 0, 1, 0, 0, 2, 1, 0, 0, 0, 0, 3, 0, 0, 2, 0, 0],[],[],[7, 9, 0, 0, 10, 7, 0, 0, 7, 0, 0, 0, 0, 7, 10, 9, 9, 0, 0, 10, 9, 0, 7, 0, 10, 0, 4, 0, 0, 0, 0, 0, 0, 0, 4, 0, 0, 10, 0, 0, 9, 9, 4, 4, 0, 4, 0, 0, 9, 7],[],[][35, 39, 33, 28, 27],[25, 38, 31, 21, 47, 9, 11],[3, 30, 17, 6, 44],[34, 42, 26, 43, 45],[36, 10, 46, 32, 12],[29, 18],[8, 5, 13, 0, 22, 49],[23, 2, 7],[15, 48, 16, 40, 41, 20, 1],[37, 4, 14, 24, 19]
00001001001001000000000000000000001011001000001011,00000000000000000000000000000000000000000000000000,00000100110100100101001010011000000000000010000000,00000000000000000000000000000000000000000000000000,00010000000000000000010001000011010100110000100100,00100010000010000010000100000100100000000000000000,00000000000000000000000000000000000000000000000000,00000000000000000000000000000000000000000000000000,00000000000000000000000000000000000000000000000000,11000000000000011000100000100000000000000101010000,[0, 0, 0, 0, 2, 0, 0, 8, 0, 0, 2, 0, 0, 2, 0, 0, 0, 0, 0, 0, 0, 0, 0, 0, 0, 0, 0, 0, 0, 0, 0, 0, 0, 0, 2, 0, 2, 8, 0, 0, 8, 0, 0, 0, 0, 0, 2, 0, 2, 2],[],[0, 0, 0, 0, 0, 10, 0, 0, 10, 7, 0, 10, 0, 0, 7, 0, 0, 10, 0, 7, 0, 0, 7, 0, 7, 0, 0, 10, 10, 0, 0, 0, 0, 0, 0, 0, 0, 0, 0, 0, 0, 0, 10, 0, 0, 0, 0, 0, 0, 0],[],[0, 0, 0, 9, 0, 0, 0, 0, 0, 0, 0, 0, 0, 0, 0, 0, 0, 0, 0, 0, 0, 9, 0, 0, 0, 1, 0, 0, 0, 0, 1, 9, 0, 1, 0, 1, 0, 0, 9, 1, 0, 0, 0, 0, 9, 0, 0, 9, 0, 0],[0, 0, 5, 0, 0, 0, 3, 0, 0, 0, 0, 0, 5, 0, 0, 0, 0, 0, 3, 0, 0, 0, 0, 3, 0, 0, 0, 0, 0, 5, 0, 0, 3, 0, 0, 0, 0, 0, 0, 0, 0, 0, 0, 0, 0, 0, 0, 0, 0, 0],[],[],[],[6, 6, 0, 0, 0, 0, 0, 0, 0, 0, 0, 0, 0, 0, 0, 6, 4, 0, 0, 0, 4, 0, 0, 0, 0, 0, 6, 0, 0, 0, 0, 0, 0, 0, 0, 0, 0, 0, 0, 0, 0, 4, 0, 6, 0, 4, 0, 0, 0, 0][25, 39, 35, 33, 30],[4, 49, 36, 10, 13, 48, 34, 46],[18, 6, 32, 23],[20, 41, 16, 45],[12, 2, 29],[26, 15, 0, 1, 43],[22, 9, 19, 14, 24],[7, 40, 37],[47, 38, 31, 21, 3, 44],[11, 5, 17, 28, 8, 42, 27]
00000000000000000000000000000000000000000000000000,00000000000000000000000000000000000000000000000000,00000000010100000100011001010001000000100000000000,00010000100000000001000010001010010000000000000101,00000000000000000000000000000000000000000000000000,00000000000000000000000000000000000000000000000000,11001100000001101000100000000000001001001110010010,00000000000000000000000000000000000000000000000000,00000000000000000000000000000000000000000000000000,00100011001010010010000100100100100110010001101000,[],[],[0, 0, 0, 0, 0, 0, 0, 0, 0, 3, 0, 3, 0, 0, 0, 0, 0, 3, 0, 0, 0, 8, 8, 0, 0, 8, 0, 3, 0, 0, 0, 3, 0, 0, 0, 0, 0, 0, 3, 0, 0, 0, 0, 0, 0, 0, 0, 0, 0, 0],[0, 0, 0, 6, 0, 0, 0, 0, 4, 0, 0, 0, 0, 0, 0, 0, 0, 0, 0, 6, 0, 0, 0, 0, 6, 0, 0, 0, 4, 0, 6, 0, 0, 4, 0, 0, 0, 0, 0, 0, 0, 0, 0, 0, 0, 0, 0, 4, 0, 4],[],[],[10, 9, 0, 0, 5, 9, 0, 0, 0, 0, 0, 0, 0, 9, 5, 0, 5, 0, 0, 0, 10, 0, 0, 0, 0, 0, 0, 0, 0, 0, 0, 0, 0, 0, 10, 0, 0, 5, 0, 0, 9, 10, 9, 0, 0, 9, 0, 0, 5, 0],[],[],[0, 0, 7, 0, 0, 0, 1, 2, 0, 0, 2, 0, 7, 0, 0, 2, 0, 0, 1, 0, 0, 0, 0, 1, 0, 0, 2, 0, 0, 2, 0, 0, 7, 0, 0, 2, 7, 0, 0, 7, 0, 0, 0, 1, 1, 0, 1, 0, 0, 0][43, 23, 18, 46, 6, 44],[15, 26, 7, 29, 10, 35],[17, 11, 9, 31, 38, 27],[49, 33, 28, 47, 8],[37, 48, 16, 14, 4],[24, 3, 30, 19],[32, 2, 39, 36, 12],[22, 21, 25],[40, 45, 5, 42, 1, 13],[34, 41, 20, 0]
00001001001001000000000000000000001011001000001011,00000000000000000000000000000000000000000000000000,00000100110100100101001010011000000000000010000000,00000000000000000000000000000000000000000000000000,00010000000000000000010001000011010100110000100100,00100010000010000010000100000100100000000000000000,00000000000000000000000000000000000000000000000000,00000000000000000000000000000000000000000000000000,00000000000000000000000000000000000000000000000000,11000000000000011000100000100000000000000101010000,[0, 0, 0, 0, 10, 0, 0, 6, 0, 0, 10, 0, 0, 10, 0, 0, 0, 0, 0, 0, 0, 0, 0, 0, 0, 0, 0, 0, 0, 0, 0, 0, 0, 0, 10, 0, 6, 6, 0, 0, 6, 0, 0, 0, 0, 0, 6, 0, 10, 10],[],[0, 0, 0, 0, 0, 9, 0, 0, 5, 9, 0, 9, 0, 0, 5, 0, 0, 9, 0, 5, 0, 0, 9, 0, 9, 0, 0, 5, 9, 0, 0, 0, 0, 0, 0, 0, 0, 0, 0, 0, 0, 0, 5, 0, 0, 0, 0, 0, 0, 0],[],[0, 0, 0, 4, 0, 0, 0, 0, 0, 0, 0, 0, 0, 0, 0, 0, 0, 0, 0, 0, 0, 2, 0, 0, 0, 2, 0, 0, 0, 0, 4, 2, 0, 2, 0, 4, 0, 0, 4, 2, 0, 0, 0, 0, 4, 0, 0, 4, 0, 0],[0, 0, 7, 0, 0, 0, 7, 0, 0, 0, 0, 0, 7, 0, 0, 0, 0, 0, 1, 0, 0, 0, 0, 1, 0, 0, 0, 0, 0, 7, 0, 0, 1, 0, 0, 0, 0, 0, 0, 0, 0, 0, 0, 0, 0, 0, 0, 0, 0, 0],[],[],[],[3, 8, 0, 0, 0, 0, 0, 0, 0, 0, 0, 0, 0, 0, 0, 8, 8, 0, 0, 0, 3, 0, 0, 0, 0, 0, 8, 0, 0, 0, 0, 0, 0, 0, 0, 0, 0, 0, 0, 0, 0, 3, 0, 8, 0, 3, 0, 0, 0, 0][18, 23, 32],[39, 33, 25, 21, 31],[45, 0, 41, 20],[47, 44, 30, 3, 35, 38],[14, 8, 42, 19, 27],[40, 7, 36, 37, 46],[12, 2, 29, 6],[43, 15, 16, 1, 26],[5, 22, 28, 17, 24, 11, 9],[4, 49, 34, 13, 48, 10]
00000001001001010000000000000000001011000000001010,00000000000000000000000000000000000000000000000000,00000000000000000000000000000000000000000000000000,00001000110100000001001010011000000000001010000001,00010000000000000100010001000011010100110000100100,00100010000010000010000100000100100000000000000000,00000000000000000000000000000000000000000000000000,00000000000000000000000000000000000000000000000000,11000100000000101000100000100000000000000101010000,00000000000000000000000000000000000000000000000000,[0, 0, 0, 0, 0, 0, 0, 6, 0, 0, 10, 0, 0, 10, 0, 6, 0, 0, 0, 0, 0, 0, 0, 0, 0, 0, 0, 0, 0, 0, 0, 0, 0, 0, 6, 0, 10, 10, 0, 0, 0, 0, 0, 0, 0, 0, 10, 0, 10, 0],[],[],[0, 0, 0, 0, 1, 0, 0, 0, 5, 5, 0, 5, 0, 0, 0, 0, 0, 0, 0, 5, 0, 0, 1, 0, 5, 0, 0, 5, 1, 0, 0, 0, 0, 0, 0, 0, 0, 0, 0, 0, 1, 0, 5, 0, 0, 0, 0, 0, 0, 1],[0, 0, 0, 7, 0, 0, 0, 0, 0, 0, 0, 0, 0, 0, 0, 0, 0, 9, 0, 0, 0, 9, 0, 0, 0, 9, 0, 0, 0, 0, 9, 7, 0, 7, 0, 9, 0, 0, 9, 7, 0, 0, 0, 0, 7, 0, 0, 9, 0, 0],[0, 0, 2, 0, 0, 0, 8, 0, 0, 0, 0, 0, 2, 0, 0, 0, 0, 0, 8, 0, 0, 0, 0, 8, 0, 0, 0, 0, 0, 2, 0, 0, 2, 0, 0, 0, 0, 0, 0, 0, 0, 0, 0, 0, 0, 0, 0, 0, 0, 0],[],[],[4, 4, 0, 0, 0, 4, 0, 0, 0, 0, 0, 0, 0, 0, 3, 0, 3, 0, 0, 0, 3, 0, 0, 0, 0, 0, 3, 0, 0, 0, 0, 0, 0, 0, 0, 0, 0, 0, 0, 0, 0, 4, 0, 3, 0, 4, 0, 0, 0, 0],[][40, 4, 49, 28, 22],[32, 29, 12, 2],[14, 43, 26, 16, 20],[45, 1, 5, 41, 0],[42, 24, 11, 19, 27, 9, 8],[7, 15, 34],[33, 39, 3, 31, 44],[23, 18, 6],[30, 47, 25, 21, 17, 38, 35],[48, 13, 10, 36, 46, 37]
00000001001000000000000000000000000010000000001000,00000000000000001000100000100000000000000101000000,00000000000000000000000000000000000000000000000000,00001000110100000001001010011000000000001010000001,00010000000000000100010001000011010100110000100100,00100010000010000010000100000100100000000000000000,00000000000000000000000000000000000000000000000000,01000000000001010000000000000000001001000000000010,10000100000000100000000000000000000000000000010000,00000000000000000000000000000000000000000000000000,[0, 0, 0, 0, 0, 0, 0, 6, 0, 0, 6, 0, 0, 0, 0, 0, 0, 0, 0, 0, 0, 0, 0, 0, 0, 0, 0, 0, 0, 0, 0, 0, 0, 0, 0, 0, 6, 0, 0, 0, 0, 0, 0, 0, 0, 0, 6, 0, 0, 0],[0, 0, 0, 0, 0, 0, 0, 0, 0, 0, 0, 0, 0, 0, 0, 0, 7, 0, 0, 0, 7, 0, 0, 0, 0, 0, 7, 0, 0, 0, 0, 0, 0, 0, 0, 0, 0, 0, 0, 0, 0, 7, 0, 7, 0, 0, 0, 0, 0, 0],[],[0, 0, 0, 0, 8, 0, 0, 0, 10, 10, 0, 8, 0, 0, 0, 0, 0, 0, 0, 8, 0, 0, 8, 0, 10, 0, 0, 8, 8, 0, 0, 0, 0, 0, 0, 0, 0, 0, 0, 0, 10, 0, 8, 0, 0, 0, 0, 0, 0, 10],[0, 0, 0, 2, 0, 0, 0, 0, 0, 0, 0, 0, 0, 0, 0, 0, 0, 2, 0, 0, 0, 9, 0, 0, 0, 9, 0, 0, 0, 0, 9, 2, 0, 9, 0, 2, 0, 0, 9, 2, 0, 0, 0, 0, 2, 0, 0, 9, 0, 0],[0, 0, 4, 0, 0, 0, 4, 0, 0, 0, 0, 0, 5, 0, 0, 0, 0, 0, 5, 0, 0, 0, 0, 5, 0, 0, 0, 0, 0, 4, 0, 0, 4, 0, 0, 0, 0, 0, 0, 0, 0, 0, 0, 0, 0, 0, 0, 0, 0, 0],[],[0, 1, 0, 0, 0, 0, 0, 0, 0, 0, 0, 0, 0, 1, 0, 1, 0, 0, 0, 0, 0, 0, 0, 0, 0, 0, 0, 0, 0, 0, 0, 0, 0, 0, 1, 0, 0, 1, 0, 0, 0, 0, 0, 0, 0, 0, 0, 0, 1, 0],[3, 0, 0, 0, 0, 3, 0, 0, 0, 0, 0, 0, 0, 0, 3, 0, 0, 0, 0, 0, 0, 0, 0, 0, 0, 0, 0, 0, 0, 0, 0, 0, 0, 0, 0, 0, 0, 0, 0, 0, 0, 0, 0, 0, 0, 3, 0, 0, 0, 0],[][13, 15, 1, 37, 48, 34],[17, 44, 35, 39, 31, 3],[45, 0, 14, 5],[32, 29, 2, 6],[12, 23, 18],[36, 7, 10, 46],[43, 26, 41, 16, 20],[27, 11, 19, 4, 42, 28, 22],[25, 38, 33, 30, 47, 21],[40, 9, 24, 8, 49]
00001001001001000000000000000000001011001000001011,00000000000000000000000000000000000000000000000000,00000100110100100101001010011000000000000010000000,00000000000000000000000000000000000000000000000000,00010000000000000000010001000011010100110000100100,00100010000010000010000100000100100000000000000000,00000000000000000000000000000000000000000000000000,00000000000000000000000000000000000000000000000000,00000000000000000000000000000000000000000000000000,11000000000000011000100000100000000000000101010000,[0, 0, 0, 0, 8, 0, 0, 3, 0, 0, 3, 0, 0, 8, 0, 0, 0, 0, 0, 0, 0, 0, 0, 0, 0, 0, 0, 0, 0, 0, 0, 0, 0, 0, 8, 0, 8, 3, 0, 0, 3, 0, 0, 0, 0, 0, 8, 0, 8, 3],[],[0, 0, 0, 0, 0, 7, 0, 0, 10, 10, 0, 10, 0, 0, 10, 0, 0, 10, 0, 7, 0, 0, 10, 0, 10, 0, 0, 7, 7, 0, 0, 0, 0, 0, 0, 0, 0, 0, 0, 0, 0, 0, 7, 0, 0, 0, 0, 0, 0, 0],[],[0, 0, 0, 2, 0, 0, 0, 0, 0, 0, 0, 0, 0, 0, 0, 0, 0, 0, 0, 0, 0, 2, 0, 0, 0, 2, 0, 0, 0, 0, 9, 9, 0, 9, 0, 9, 0, 0, 9, 2, 0, 0, 0, 0, 2, 0, 0, 2, 0, 0],[0, 0, 5, 0, 0, 0, 1, 0, 0, 0, 0, 0, 5, 0, 0, 0, 0, 0, 1, 0, 0, 0, 0, 1, 0, 0, 0, 0, 0, 5, 0, 0, 1, 0, 0, 0, 0, 0, 0, 0, 0, 0, 0, 0, 0, 0, 0, 0, 0, 0],[],[],[],[6, 4, 0, 0, 0, 0, 0, 0, 0, 0, 0, 0, 0, 0, 0, 6, 6, 0, 0, 0, 6, 0, 0, 0, 0, 0, 4, 0, 0, 0, 0, 0, 0, 0, 0, 0, 0, 0, 0, 0, 0, 4, 0, 4, 0, 4, 0, 0, 0, 0][32, 6, 18, 23],[25, 3, 47, 21, 44, 39],[40, 49, 37, 7, 10],[45, 1, 41, 26, 43],[29, 2, 12],[20, 0, 16, 15],[5, 42, 19, 28, 27],[34, 13, 4, 36, 46, 48],[31, 33, 38, 30, 35],[8, 14, 22, 24, 11, 9, 17]
11000001001001011000100000100000001011000101011010,00000000000000000000000000000000000000000000000000,00000000000000000000000000000000000000000000000000,00001100110100100001001010011000000000001010000001,00010000000000000100010001000011010100110000100100,00100010000010000010000100000100100000000000000000,00000000000000000000000000000000000000000000000000,00000000000000000000000000000000000000000000000000,00000000000000000000000000000000000000000000000000,00000000000000000000000000000000000000000000000000,[9, 5, 0, 0, 0, 0, 0, 4, 0, 0, 5, 0, 0, 5, 0, 9, 4, 0, 0, 0, 9, 0, 0, 0, 0, 0, 5, 0, 0, 0, 0, 0, 0, 0, 9, 0, 9, 9, 0, 0, 0, 4, 0, 9, 0, 5, 4, 0, 4, 0],[],[],[0, 0, 0, 0, 8, 8, 0, 0, 6, 6, 0, 3, 0, 0, 3, 0, 0, 0, 0, 3, 0, 0, 6, 0, 3, 0, 0, 3, 6, 0, 0, 0, 0, 0, 0, 0, 0, 0, 0, 0, 8, 0, 6, 0, 0, 0, 0, 0, 0, 3],[0, 0, 0, 2, 0, 0, 0, 0, 0, 0, 0, 0, 0, 0, 0, 0, 0, 2, 0, 0, 0, 1, 0, 0, 0, 2, 0, 0, 0, 0, 1, 2, 0, 1, 0, 1, 0, 0, 2, 1, 0, 0, 0, 0, 1, 0, 0, 2, 0, 0],[0, 0, 10, 0, 0, 0, 10, 0, 0, 0, 0, 0, 7, 0, 0, 0, 0, 0, 7, 0, 0, 0, 0, 7, 0, 0, 0, 0, 0, 10, 0, 0, 10, 0, 0, 0, 0, 0, 0, 0, 0, 0, 0, 0, 0, 0, 0, 0, 0, 0],[],[],[],[][35, 21, 33, 39, 30, 44],[38, 3, 47, 25, 31, 17],[49, 14, 27, 24, 19, 11],[48, 46, 41, 16, 7],[13, 26, 45, 1, 10],[9, 28, 42, 8, 22],[18, 12, 23],[5, 40, 4],[36, 15, 34, 37, 43, 0, 20],[29, 32, 6, 2]
00000001001000000000000000000000000010000000001000,00000000000000001000100000100000000000000101000000,00000000010100000100001000010000000000000000000000,00001000100000000001000010001000000000001010000001,00010000000000000000010001000011010100110000100100,00100010000010000010000100000100100000000000000000,00000000000000000000000000000000000000000000000000,01000000000001010000000000000000001001000000000010,10000100000000100000000000000000000000000000010000,00000000000000000000000000000000000000000000000000,[0, 0, 0, 0, 0, 0, 0, 6, 0, 0, 6, 0, 0, 0, 0, 0, 0, 0, 0, 0, 0, 0, 0, 0, 0, 0, 0, 0, 0, 0, 0, 0, 0, 0, 0, 0, 6, 0, 0, 0, 0, 0, 0, 0, 0, 0, 6, 0, 0, 0],[0, 0, 0, 0, 0, 0, 0, 0, 0, 0, 0, 0, 0, 0, 0, 0, 8, 0, 0, 0, 8, 0, 0, 0, 0, 0, 8, 0, 0, 0, 0, 0, 0, 0, 0, 0, 0, 0, 0, 0, 0, 8, 0, 8, 0, 0, 0, 0, 0, 0],[0, 0, 0, 0, 0, 0, 0, 0, 0, 5, 0, 5, 0, 0, 0, 0, 0, 5, 0, 0, 0, 0, 5, 0, 0, 0, 0, 5, 0, 0, 0, 0, 0, 0, 0, 0, 0, 0, 0, 0, 0, 0, 0, 0, 0, 0, 0, 0, 0, 0],[0, 0, 0, 0, 2, 0, 0, 0, 2, 0, 0, 0, 0, 0, 0, 0, 0, 0, 0, 2, 0, 0, 0, 0, 2, 0, 0, 0, 2, 0, 0, 0, 0, 0, 0, 0, 0, 0, 0, 0, 2, 0, 2, 0, 0, 0, 0, 0, 0, 2],[0, 0, 0, 9, 0, 0, 0, 0, 0, 0, 0, 0, 0, 0, 0, 0, 0, 0, 0, 0, 0, 10, 0, 0, 0, 9, 0, 0, 0, 0, 10, 9, 0, 9, 0, 10, 0, 0, 9, 9, 0, 0, 0, 0, 10, 0, 0, 9, 0, 0],[0, 0, 3, 0, 0, 0, 3, 0, 0, 0, 0, 0, 3, 0, 0, 0, 0, 0, 7, 0, 0, 0, 0, 3, 0, 0, 0, 0, 0, 7, 0, 0, 7, 0, 0, 0, 0, 0, 0, 0, 0, 0, 0, 0, 0, 0, 0, 0, 0, 0],[],[0, 1, 0, 0, 0, 0, 0, 0, 0, 0, 0, 0, 0, 1, 0, 1, 0, 0, 0, 0, 0, 0, 0, 0, 0, 0, 0, 0, 0, 0, 0, 0, 0, 0, 1, 0, 0, 1, 0, 0, 0, 0, 0, 0, 0, 0, 0, 0, 1, 0],[4, 0, 0, 0, 0, 4, 0, 0, 0, 0, 0, 0, 0, 0, 4, 0, 0, 0, 0, 0, 0, 0, 0, 0, 0, 0, 0, 0, 0, 0, 0, 0, 0, 0, 0, 0, 0, 0, 0, 0, 0, 0, 0, 0, 0, 4, 0, 0, 0, 0],[][48, 37, 15, 1, 34, 13],[49, 42, 24, 8, 40, 28, 19, 4],[6, 2, 12, 23],[5, 0, 14, 45],[11, 22, 27, 17, 9],[36, 10, 46, 7],[29, 18, 32],[41, 20, 26, 16, 43],[3, 47, 33, 38, 25, 39, 31],[35, 21, 30, 44]
00000000000000000000000000000000000000000000000000,00000000000000000000000000000000000000000000000000,00000000110100000101001010011000000000000000000000,00000000000000000000000000000000000000000000000000,00010000000000000000010001000011010100110000101100,00100011001010000010000100000100100010000000000000,10001100000000101000100000000000000000001010010000,01000000000001010000000000100000001001000101000011,00000000000000000000000000000000000000000000000000,00000000000000000000000000000000000000000000000000,[],[],[0, 0, 0, 0, 0, 0, 0, 0, 6, 6, 0, 5, 0, 0, 0, 0, 0, 5, 0, 5, 0, 0, 6, 0, 6, 0, 0, 5, 5, 0, 0, 0, 0, 0, 0, 0, 0, 0, 0, 0, 0, 0, 0, 0, 0, 0, 0, 0, 0, 0],[],[0, 0, 0, 9, 0, 0, 0, 0, 0, 0, 0, 0, 0, 0, 0, 0, 0, 0, 0, 0, 0, 9, 0, 0, 0, 2, 0, 0, 0, 0, 9, 2, 0, 9, 0, 9, 0, 0, 2, 2, 0, 0, 0, 0, 2, 0, 9, 9, 0, 0],[0, 0, 7, 0, 0, 0, 7, 7, 0, 0, 7, 0, 10, 0, 0, 0, 0, 0, 10, 0, 0, 0, 0, 10, 0, 0, 0, 0, 0, 7, 0, 0, 10, 0, 0, 0, 7, 0, 0, 0, 0, 0, 0, 0, 0, 0, 0, 0, 0, 0],[4, 0, 0, 0, 4, 4, 0, 0, 0, 0, 0, 0, 0, 0, 1, 0, 4, 0, 0, 0, 4, 0, 0, 0, 0, 0, 0, 0, 0, 0, 0, 0, 0, 0, 0, 0, 0, 0, 0, 0, 1, 0, 4, 0, 0, 1, 0, 0, 0, 0],[0, 3, 0, 0, 0, 0, 0, 0, 0, 0, 0, 0, 0, 3, 0, 3, 0, 0, 0, 0, 0, 0, 0, 0, 0, 0, 8, 0, 0, 0, 0, 0, 0, 0, 8, 0, 0, 8, 0, 0, 0, 3, 0, 3, 0, 0, 0, 0, 8, 3],[],[][14, 40, 45],[44, 38, 39, 25, 31],[13, 15, 43, 41, 1, 49],[0, 16, 20, 42, 4, 5],[17, 27, 19, 11, 28],[9, 22, 24, 8],[29, 7, 10, 6, 2, 36],[26, 37, 48, 34],[35, 46, 30, 47, 3, 33, 21],[23, 32, 18, 12]
00100001001011010010000100000100101011000000001010,00000000000000000000000000000000000000000000000000,00000000000000000000000000000000000000000000000000,00001000110100000001001010011000000000001010000001,00010010000000000100010001000011010100110000100100,00000000000000000000000000000000000000000000000000,00000000000000000000000000000000000000000000000000,00000000000000000000000000000000000000000000000000,11000100000000101000100000100000000000000101010000,00000000000000000000000000000000000000000000000000,[0, 0, 3, 0, 0, 0, 0, 10, 0, 0, 3, 0, 1, 1, 0, 3, 0, 0, 10, 0, 0, 0, 0, 10, 0, 0, 0, 0, 0, 1, 0, 0, 1, 0, 3, 0, 10, 3, 0, 0, 0, 0, 0, 0, 0, 0, 10, 0, 3, 0],[],[],[0, 0, 0, 0, 8, 0, 0, 0, 8, 8, 0, 8, 0, 0, 0, 0, 0, 0, 0, 9, 0, 0, 9, 0, 9, 0, 0, 8, 9, 0, 0, 0, 0, 0, 0, 0, 0, 0, 0, 0, 9, 0, 9, 0, 0, 0, 0, 0, 0, 8],[0, 0, 0, 2, 0, 0, 7, 0, 0, 0, 0, 0, 0, 0, 0, 0, 0, 7, 0, 0, 0, 7, 0, 0, 0, 6, 0, 0, 0, 0, 6, 2, 0, 7, 0, 2, 0, 0, 2, 2, 0, 0, 0, 0, 7, 0, 0, 6, 0, 0],[],[],[],[4, 4, 0, 0, 0, 5, 0, 0, 0, 0, 0, 0, 0, 0, 4, 0, 4, 0, 0, 0, 4, 0, 0, 0, 0, 0, 5, 0, 0, 0, 0, 0, 0, 0, 0, 0, 0, 0, 0, 0, 0, 5, 0, 5, 0, 5, 0, 0, 0, 0],[][12, 32, 29, 13],[39, 35, 31, 3, 38],[2, 37, 48, 15, 10, 34],[20, 16, 14, 0, 1],[5, 41, 26, 43, 45],[47, 30, 25],[44, 6, 33, 21, 17],[8, 27, 9, 11, 4, 49],[22, 19, 24, 42, 40, 28],[46, 36, 7, 18, 23]
00000001001000000000000000000000000010000000001000,10000000000000001000100000100000000000000101010000,00000000010100000100001000010000000000000000000000,00000000100000000001000010001000000000000000000001,00010000000000000000010001000011010100110000100100,00100010000010000010000100000100100000000000000000,00001100000000100000000000000000000000001010000000,01000000000001010000000000000000001001000000000010,00000000000000000000000000000000000000000000000000,00000000000000000000000000000000000000000000000000,[0, 0, 0, 0, 0, 0, 0, 6, 0, 0, 6, 0, 0, 0, 0, 0, 0, 0, 0, 0, 0, 0, 0, 0, 0, 0, 0, 0, 0, 0, 0, 0, 0, 0, 0, 0, 6, 0, 0, 0, 0, 0, 0, 0, 0, 0, 6, 0, 0, 0],[9, 0, 0, 0, 0, 0, 0, 0, 0, 0, 0, 0, 0, 0, 0, 0, 9, 0, 0, 0, 9, 0, 0, 0, 0, 0, 9, 0, 0, 0, 0, 0, 0, 0, 0, 0, 0, 0, 0, 0, 0, 9, 0, 9, 0, 9, 0, 0, 0, 0],[0, 0, 0, 0, 0, 0, 0, 0, 0, 8, 0, 8, 0, 0, 0, 0, 0, 8, 0, 0, 0, 0, 8, 0, 0, 0, 0, 8, 0, 0, 0, 0, 0, 0, 0, 0, 0, 0, 0, 0, 0, 0, 0, 0, 0, 0, 0, 0, 0, 0],[0, 0, 0, 0, 0, 0, 0, 0, 7, 0, 0, 0, 0, 0, 0, 0, 0, 0, 0, 7, 0, 0, 0, 0, 7, 0, 0, 0, 7, 0, 0, 0, 0, 0, 0, 0, 0, 0, 0, 0, 0, 0, 0, 0, 0, 0, 0, 0, 0, 7],[0, 0, 0, 2, 0, 0, 0, 0, 0, 0, 0, 0, 0, 0, 0, 0, 0, 0, 0, 0, 0, 10, 0, 0, 0, 10, 0, 0, 0, 0, 10, 2, 0, 10, 0, 2, 0, 0, 10, 2, 0, 0, 0, 0, 2, 0, 0, 10, 0, 0],[0, 0, 4, 0, 0, 0, 3, 0, 0, 0, 0, 0, 3, 0, 0, 0, 0, 0, 4, 0, 0, 0, 0, 4, 0, 0, 0, 0, 0, 3, 0, 0, 3, 0, 0, 0, 0, 0, 0, 0, 0, 0, 0, 0, 0, 0, 0, 0, 0, 0],[0, 0, 0, 0, 1, 1, 0, 0, 0, 0, 0, 0, 0, 0, 1, 0, 0, 0, 0, 0, 0, 0, 0, 0, 0, 0, 0, 0, 0, 0, 0, 0, 0, 0, 0, 0, 0, 0, 0, 0, 1, 0, 1, 0, 0, 0, 0, 0, 0, 0],[0, 5, 0, 0, 0, 0, 0, 0, 0, 0, 0, 0, 0, 5, 0, 5, 0, 0, 0, 0, 0, 0, 0, 0, 0, 0, 0, 0, 0, 0, 0, 0, 0, 0, 5, 0, 0, 5, 0, 0, 0, 0, 0, 0, 0, 0, 0, 0, 5, 0],[],[][42, 40, 4, 14, 5],[44, 35, 39, 31, 3],[12, 6, 29, 32],[2, 23, 18],[48, 13, 1, 37, 34, 15],[10, 7, 36, 46],[19, 24, 28, 49, 8],[27, 17, 11, 9, 22],[20, 43, 45, 0, 16, 26, 41],[33, 25, 21, 30, 38, 47]
00000001001000010000000000000000001011000000001010,11000000000001001000100000100000000000000101010000,00000000010100000100001000010000000000000000000000,00001100100000100001000010001000000000001010000001,00010000000000000000010001000011010100110000100100,00100010000010000010000100000100100000000000000000,00000000000000000000000000000000000000000000000000,00000000000000000000000000000000000000000000000000,00000000000000000000000000000000000000000000000000,00000000000000000000000000000000000000000000000000,[0, 0, 0, 0, 0, 0, 0, 7, 0, 0, 7, 0, 0, 0, 0, 7, 0, 0, 0, 0, 0, 0, 0, 0, 0, 0, 0, 0, 0, 0, 0, 0, 0, 0, 7, 0, 7, 7, 0, 0, 0, 0, 0, 0, 0, 0, 7, 0, 7, 0],[3, 5, 0, 0, 0, 0, 0, 0, 0, 0, 0, 0, 0, 3, 0, 0, 5, 0, 0, 0, 5, 0, 0, 0, 0, 0, 5, 0, 0, 0, 0, 0, 0, 0, 0, 0, 0, 0, 0, 0, 0, 3, 0, 5, 0, 3, 0, 0, 0, 0],[0, 0, 0, 0, 0, 0, 0, 0, 0, 8, 0, 8, 0, 0, 0, 0, 0, 8, 0, 0, 0, 0, 8, 0, 0, 0, 0, 8, 0, 0, 0, 0, 0, 0, 0, 0, 0, 0, 0, 0, 0, 0, 0, 0, 0, 0, 0, 0, 0, 0],[0, 0, 0, 0, 4, 4, 0, 0, 4, 0, 0, 0, 0, 0, 1, 0, 0, 0, 0, 1, 0, 0, 0, 0, 1, 0, 0, 0, 4, 0, 0, 0, 0, 0, 0, 0, 0, 0, 0, 0, 4, 0, 1, 0, 0, 0, 0, 0, 0, 1],[0, 0, 0, 9, 0, 0, 0, 0, 0, 0, 0, 0, 0, 0, 0, 0, 0, 0, 0, 0, 0, 2, 0, 0, 0, 9, 0, 0, 0, 0, 9, 2, 0, 9, 0, 9, 0, 0, 2, 2, 0, 0, 0, 0, 2, 0, 0, 9, 0, 0],[0, 0, 6, 0, 0, 0, 10, 0, 0, 0, 0, 0, 6, 0, 0, 0, 0, 0, 10, 0, 0, 0, 0, 10, 0, 0, 0, 0, 0, 10, 0, 0, 6, 0, 0, 0, 0, 0, 0, 0, 0, 0, 0, 0, 0, 0, 0, 0, 0, 0],[],[],[],[][24, 14, 49, 19, 42],[44, 39, 38, 21, 31],[41, 0, 45, 13],[8, 40, 5, 4, 28],[26, 20, 43, 1, 16],[2, 12, 32],[46, 10, 34, 36, 7, 15, 37, 48],[17, 11, 27, 9, 22],[30, 47, 3, 35, 25, 33],[6, 23, 29, 18]
00000000000000000000000000000000000000000000000000,00000000000000000000000000000000000000000000000000,00000000000000000000000000000000000000000000000000,00000000000000000000000000000000000000000000000000,00000000000000000000000000000000000000000000000000,00110011001010000110010101000101110110110000101000,00000000000000000000000000000000000000000000000000,11001100110101111001101010111010001001001111010111,00000000000000000000000000000000000000000000000000,00000000000000000000000000000000000000000000000000,[],[],[],[],[],[0, 0, 7, 7, 0, 0, 2, 8, 0, 0, 2, 0, 3, 0, 0, 0, 0, 8, 7, 0, 0, 8, 0, 2, 0, 7, 0, 0, 0, 6, 0, 2, 3, 2, 0, 6, 7, 0, 7, 6, 0, 0, 0, 0, 3, 0, 3, 0, 0, 0],[],[1, 4, 0, 0, 9, 10, 0, 0, 5, 5, 0, 10, 0, 4, 9, 5, 5, 0, 0, 10, 9, 0, 1, 0, 4, 0, 10, 4, 10, 0, 9, 0, 0, 0, 1, 0, 0, 9, 0, 0, 1, 4, 1, 5, 0, 9, 0, 4, 1, 1],[],[][49, 22, 34, 0, 40, 42, 48],[6, 31, 10, 23, 33],[46, 44, 12, 32],[41, 27, 47, 13, 1, 24],[15, 16, 9, 8, 43],[39, 29, 35],[3, 25, 2, 18, 38, 36],[17, 21, 7],[37, 14, 4, 20, 45, 30],[11, 26, 28, 19, 5]
00100001001010000010000100000100100010000000001000,10000000000000001000100000100000000000000101010000,00000000010100000100001000010000000000000000000000,00000000100000000001000010001000000000000000000001,00010010000000000000010001000011010100110000100100,00000000000000000000000000000000000000000000000000,00001100000000100000000000000000000000001010000000,01000000000001010000000000000000001001000000000010,00000000000000000000000000000000000000000000000000,00000000000000000000000000000000000000000000000000,[0, 0, 1, 0, 0, 0, 0, 2, 0, 0, 1, 0, 2, 0, 0, 0, 0, 0, 1, 0, 0, 0, 0, 2, 0, 0, 0, 0, 0, 1, 0, 0, 2, 0, 0, 0, 2, 0, 0, 0, 0, 0, 0, 0, 0, 0, 1, 0, 0, 0],[8, 0, 0, 0, 0, 0, 0, 0, 0, 0, 0, 0, 0, 0, 0, 0, 5, 0, 0, 0, 8, 0, 0, 0, 0, 0, 8, 0, 0, 0, 0, 0, 0, 0, 0, 0, 0, 0, 0, 0, 0, 5, 0, 5, 0, 5, 0, 0, 0, 0],[0, 0, 0, 0, 0, 0, 0, 0, 0, 6, 0, 6, 0, 0, 0, 0, 0, 6, 0, 0, 0, 0, 6, 0, 0, 0, 0, 6, 0, 0, 0, 0, 0, 0, 0, 0, 0, 0, 0, 0, 0, 0, 0, 0, 0, 0, 0, 0, 0, 0],[0, 0, 0, 0, 0, 0, 0, 0, 4, 0, 0, 0, 0, 0, 0, 0, 0, 0, 0, 4, 0, 0, 0, 0, 4, 0, 0, 0, 4, 0, 0, 0, 0, 0, 0, 0, 0, 0, 0, 0, 0, 0, 0, 0, 0, 0, 0, 0, 0, 4],[0, 0, 0, 9, 0, 0, 10, 0, 0, 0, 0, 0, 0, 0, 0, 0, 0, 0, 0, 0, 0, 9, 0, 0, 0, 10, 0, 0, 0, 0, 9, 9, 0, 10, 0, 9, 0, 0, 10, 10, 0, 0, 0, 0, 10, 0, 0, 10, 0, 0],[],[0, 0, 0, 0, 3, 3, 0, 0, 0, 0, 0, 0, 0, 0, 3, 0, 0, 0, 0, 0, 0, 0, 0, 0, 0, 0, 0, 0, 0, 0, 0, 0, 0, 0, 0, 0, 0, 0, 0, 0, 3, 0, 3, 0, 0, 0, 0, 0, 0, 0],[0, 7, 0, 0, 0, 0, 0, 0, 0, 0, 0, 0, 0, 7, 0, 7, 0, 0, 0, 0, 0, 0, 0, 0, 0, 0, 0, 0, 0, 0, 0, 0, 0, 0, 7, 0, 0, 7, 0, 0, 0, 0, 0, 0, 0, 0, 0, 0, 7, 0],[],[][10, 29, 2, 18, 46],[36, 7, 32, 12, 23],[5, 4, 42, 40, 14],[49, 24, 8, 28, 19],[41, 43, 16, 45],[27, 11, 17, 9, 22],[15, 48, 1, 34, 37, 13],[0, 20, 26],[35, 30, 21, 3, 31],[47, 38, 39, 6, 44, 33, 25]
00001001001001000000000000000000001011001000001011,00000000000000000000000000000000000000000000000000,00000100110100100101001010011000000000000010000000,00000000000000000000000000000000000000000000000000,00010000000000000000010001000011010100110000100100,00100010000010000010000100000100100000000000000000,00000000000000000000000000000000000000000000000000,00000000000000000000000000000000000000000000000000,00000000000000000000000000000000000000000000000000,11000000000000011000100000100000000000000101010000,[0, 0, 0, 0, 10, 0, 0, 10, 0, 0, 5, 0, 0, 10, 0, 0, 0, 0, 0, 0, 0, 0, 0, 0, 0, 0, 0, 0, 0, 0, 0, 0, 0, 0, 10, 0, 5, 10, 0, 0, 5, 0, 0, 0, 0, 0, 5, 0, 10, 5],[],[0, 0, 0, 0, 0, 7, 0, 0, 7, 9, 0, 7, 0, 0, 9, 0, 0, 7, 0, 9, 0, 0, 9, 0, 9, 0, 0, 7, 7, 0, 0, 0, 0, 0, 0, 0, 0, 0, 0, 0, 0, 0, 9, 0, 0, 0, 0, 0, 0, 0],[],[0, 0, 0, 8, 0, 0, 0, 0, 0, 0, 0, 0, 0, 0, 0, 0, 0, 0, 0, 0, 0, 2, 0, 0, 0, 2, 0, 0, 0, 0, 2, 8, 0, 2, 0, 2, 0, 0, 2, 8, 0, 0, 0, 0, 8, 0, 0, 2, 0, 0],[0, 0, 1, 0, 0, 0, 1, 0, 0, 0, 0, 0, 4, 0, 0, 0, 0, 0, 1, 0, 0, 0, 0, 4, 0, 0, 0, 0, 0, 1, 0, 0, 4, 0, 0, 0, 0, 0, 0, 0, 0, 0, 0, 0, 0, 0, 0, 0, 0, 0],[],[],[],[3, 6, 0, 0, 0, 0, 0, 0, 0, 0, 0, 0, 0, 0, 0, 6, 6, 0, 0, 0, 3, 0, 0, 0, 0, 0, 3, 0, 0, 0, 0, 0, 0, 0, 0, 0, 0, 0, 0, 0, 0, 3, 0, 3, 0, 6, 0, 0, 0, 0][18, 6, 29, 2],[35, 47, 30, 38, 33, 21, 25],[41, 20, 0, 43, 26],[32, 12, 23],[49, 10, 40, 36, 46],[15, 1, 45, 16],[8, 17, 28, 11, 5, 27],[3, 39, 31, 44],[9, 19, 24, 22, 14, 42],[37, 13, 4, 34, 48, 7]
00100001001010000010000100000100100010000000001000,00000000000000000000000000000000000000000000000000,00000000110100000101001010011000000000000000000000,00000000000000000000000000000000000000000000000000,00010010000000000000010001000011010100110000100100,00000000000000000000000000000000000000000000000000,10001100000000101000100000000000000000001010010000,01000000000001010000000000100000001001000101000011,00000000000000000000000000000000000000000000000000,00000000000000000000000000000000000000000000000000,[0, 0, 9, 0, 0, 0, 0, 10, 0, 0, 10, 0, 9, 0, 0, 0, 0, 0, 10, 0, 0, 0, 0, 9, 0, 0, 0, 0, 0, 10, 0, 0, 9, 0, 0, 0, 10, 0, 0, 0, 0, 0, 0, 0, 0, 0, 9, 0, 0, 0],[],[0, 0, 0, 0, 0, 0, 0, 0, 6, 6, 0, 4, 0, 0, 0, 0, 0, 4, 0, 6, 0, 0, 6, 0, 4, 0, 0, 4, 4, 0, 0, 0, 0, 0, 0, 0, 0, 0, 0, 0, 0, 0, 0, 0, 0, 0, 0, 0, 0, 0],[],[0, 0, 0, 2, 0, 0, 2, 0, 0, 0, 0, 0, 0, 0, 0, 0, 0, 0, 0, 0, 0, 2, 0, 0, 0, 2, 0, 0, 0, 0, 2, 3, 0, 3, 0, 2, 0, 0, 3, 3, 0, 0, 0, 0, 3, 0, 0, 3, 0, 0],[],[1, 0, 0, 0, 5, 1, 0, 0, 0, 0, 0, 0, 0, 0, 5, 0, 5, 0, 0, 0, 5, 0, 0, 0, 0, 0, 0, 0, 0, 0, 0, 0, 0, 0, 0, 0, 0, 0, 0, 0, 1, 0, 1, 0, 0, 1, 0, 0, 0, 0],[0, 7, 0, 0, 0, 0, 0, 0, 0, 0, 0, 0, 0, 8, 0, 8, 0, 0, 0, 0, 0, 0, 0, 0, 0, 0, 7, 0, 0, 0, 0, 0, 0, 0, 7, 0, 0, 7, 0, 0, 0, 8, 0, 7, 0, 0, 0, 0, 7, 8],[],[][45, 0, 40, 42, 5],[21, 35, 3, 25, 30, 6],[44, 39, 31, 47, 38, 33],[11, 17, 24, 27, 28],[14, 20, 16, 4],[19, 9, 8, 22],[43, 48, 34, 37, 26, 1],[15, 13, 49, 41],[46, 23, 12, 2, 32],[36, 7, 10, 18, 29]
